NAME: rand20
COMMENT: Random 20-city instance (seed=62)
TYPE: TSP
DIMENSION: 20
EDGE_WEIGHT_TYPE: EUC_2D
NODE_COORD_SECTION
1 927.9916 173.0269
2 970.6289 238.1088
3 464.7521 897.7616
4 355.7737 508.0513
5 161.5258 961.1529
6 985.2827 171.6915
7 122.7577 472.5520
8 518.7268 775.2986
9 342.7467 590.1026
10 160.3308 212.6154
11 78.7801 545.8013
12 562.7792 616.9966
13 935.6269 306.4304
14 342.6422 463.0649
15 945.9991 307.3955
16 290.4590 426.7452
17 689.7545 279.6295
18 172.9353 731.7258
19 575.1372 579.1341
20 13.6872 249.2495
EOF
